Minimize
  - 30 y_0 - 21 y_1 - 23 y_2 - 28 y_3 - 24 y_4 - 52 y_5 - 53 y_6 - 31 y_7
   - 52 y_8 - 57 y_9 - 38 y_10 - 29 y_11 - 44 y_12 - 11 y_13 - 38 y_14
   - 8 y_15 - 51 y_16 - 45 y_17 - 41 y_18 + 54 x_0_3 + 62 x_0_4 + 56 x_0_6
   + 33 x_0_14 + 60 x_0_19 + 63 x_1_6 + 61 x_1_8 + 50 x_1_12 + 34 x_1_15
   + 48 x_1_17 + 42 x_1_19 + 61 x_2_5 + 37 x_2_7 + 60 x_2_8 + 40 x_2_15
   + 45 x_2_17 + 64 x_3_6 + 60 x_3_8 + 75 x_3_9 + 55 x_3_13 + 56 x_3_16
   + 56 x_3_19 + 73 x_4_5 + 80 x_4_6 + 72 x_4_16 + 47 x_4_19 + 8 x_5_8
   + 23 x_5_9 + 46 x_5_11 + 6 x_6_8 + 30 x_6_14 + 95 x_6_15 + 80 x_7_8
   + 41 x_7_13 + 28 x_8_12 + 104 x_8_19 + 59 x_9_10 + 58 x_9_11 + 45 x_9_12
   + 99 x_9_13 + 40 x_9_14 + 43 x_10_14 + 75 x_10_15 + 64 x_10_18
   + 45 x_11_10 + 47 x_11_15 + 44 x_11_16 + 74 x_12_15 + 35 x_12_17
   + 7 x_12_18 + 88 x_12_19 + 75 x_13_17 + 73 x_13_18 + 28 x_14_16
   + 75 x_14_19 + 102 x_16_19 + 33 x_17_18 + 676 Constant
Subject To
 c_0: y_13 = 1
 c_1_0: y_0 >= 1
 c_1_1: y_1 + y_2 >= 1
 c_1_2: y_1 + y_2 >= 1
 c_1_3: y_3 >= 1
 c_1_4: y_4 >= 1
 c_1_5: y_5 + y_8 + y_16 >= 1
 c_1_6: y_6 + y_8 >= 1
 c_1_7: y_7 >= 1
 c_1_8: y_5 + y_6 + y_8 + y_16 >= 1
 c_1_9: y_9 >= 1
 c_1_10: y_10 >= 1
 c_1_11: y_11 >= 1
 c_1_12: y_12 + y_18 >= 1
 c_1_13: y_13 >= 1
 c_1_14: y_14 >= 1
 c_1_15: y_15 >= 1
 c_1_16: y_5 + y_8 + y_16 >= 1
 c_1_17: y_17 >= 1
 c_1_18: y_12 + y_18 >= 1
 c_1_19: y_19 >= 1
 c_2_0: - 2 y_0 + x_0_3 + x_0_4 + x_0_6 + x_0_14 + x_0_19 = 0
 c_2_1: - 2 y_1 + x_1_6 + x_1_8 + x_1_12 + x_1_15 + x_1_17 + x_1_19 = 0
 c_2_2: - 2 y_2 + x_2_5 + x_2_7 + x_2_8 + x_2_15 + x_2_17 = 0
 c_2_3: - 2 y_3 + x_0_3 + x_3_6 + x_3_8 + x_3_9 + x_3_13 + x_3_16 + x_3_19
   = 0
 c_2_4: - 2 y_4 + x_0_4 + x_4_5 + x_4_6 + x_4_16 + x_4_19 = 0
 c_2_5: - 2 y_5 + x_2_5 + x_4_5 + x_5_8 + x_5_9 + x_5_11 = 0
 c_2_6: - 2 y_6 + x_0_6 + x_1_6 + x_3_6 + x_4_6 + x_6_8 + x_6_14 + x_6_15
   = 0
 c_2_7: - 2 y_7 + x_2_7 + x_7_8 + x_7_13 = 0
 c_2_8: - 2 y_8 + x_1_8 + x_2_8 + x_3_8 + x_5_8 + x_6_8 + x_7_8 + x_8_12
   + x_8_19 = 0
 c_2_9: - 2 y_9 + x_3_9 + x_5_9 + x_9_10 + x_9_11 + x_9_12 + x_9_13
   + x_9_14 = 0
 c_2_10: - 2 y_10 + x_9_10 + x_10_14 + x_10_15 + x_10_18 + x_11_10 = 0
 c_2_11: - 2 y_11 + x_5_11 + x_9_11 + x_11_10 + x_11_15 + x_11_16 = 0
 c_2_12: - 2 y_12 + x_1_12 + x_8_12 + x_9_12 + x_12_15 + x_12_17 + x_12_18
   + x_12_19 = 0
 c_2_13: - 2 y_13 + x_3_13 + x_7_13 + x_9_13 + x_13_17 + x_13_18 = 0
 c_2_14: - 2 y_14 + x_0_14 + x_6_14 + x_9_14 + x_10_14 + x_14_16 + x_14_19
   = 0
 c_2_15: - 2 y_15 + x_1_15 + x_2_15 + x_6_15 + x_10_15 + x_11_15 + x_12_15
   = 0
 c_2_16: - 2 y_16 + x_3_16 + x_4_16 + x_11_16 + x_14_16 + x_16_19 = 0
 c_2_17: - 2 y_17 + x_1_17 + x_2_17 + x_12_17 + x_13_17 + x_17_18 = 0
 c_2_18: - 2 y_18 + x_10_18 + x_12_18 + x_13_18 + x_17_18 = 0
 c_2_19: - 2 y_19 + x_0_19 + x_1_19 + x_3_19 + x_4_19 + x_8_19 + x_12_19
   + x_14_19 + x_16_19 = 0
Bounds
 Constant = 1
Binaries
 y_0 y_1 y_2 y_3 y_4 y_5 y_6 y_7 y_8 y_9 y_10 y_11 y_12 y_13 y_14 y_15 y_16
 y_17 y_18 y_19 x_0_3 x_0_4 x_0_6 x_0_14 x_0_19 x_1_6 x_1_8 x_1_12 x_1_15
 x_1_17 x_1_19 x_2_5 x_2_7 x_2_8 x_2_15 x_2_17 x_3_6 x_3_8 x_3_9 x_3_13
 x_3_16 x_3_19 x_4_5 x_4_6 x_4_16 x_4_19 x_5_8 x_5_9 x_5_11 x_6_8 x_6_14
 x_6_15 x_7_8 x_7_13 x_8_12 x_8_19 x_9_10 x_9_11 x_9_12 x_9_13 x_9_14
 x_10_14 x_10_15 x_10_18 x_11_10 x_11_15 x_11_16 x_12_15 x_12_17 x_12_18
 x_12_19 x_13_17 x_13_18 x_14_16 x_14_19 x_16_19 x_17_18
End
